units real
atom_style full

dimension 3
boundary p p p

bond_style hybrid harmonic
angle_style hybrid harmonic
dihedral_style hybrid multi/harmonic
special_bonds lj 0.0 0.0 1.0 coul 0.0 0.0 0.5

read_data 00-Inital_trimerP4HB_replicate.lmp

pair_style lj/cut/coul/long 9.0 9.0
kspace_style pppm 1e-6
pair_coeff 1 1   0.1700000   3.1200000
pair_coeff 2 2   0.0000000  10.0000000
pair_coeff 3 3   0.0660000   3.5000000
pair_coeff 4 4   0.0300000   2.5000000
pair_coeff 5 5   0.0660000   3.5000000
pair_coeff 6 6   0.0150000   2.4200000
pair_coeff 7 7   0.1050000   3.7500000
pair_coeff 8 8   0.2100000   2.9600000
pair_coeff 9 9   0.1700000   3.0000000
pair_coeff 10 10   0.0660000   3.5000000
pair_coeff 11 11   0.0150000   2.4200000
pair_coeff 12 12   0.0660000   3.5000000
pair_coeff 5 9   0.0529623   3.2403703
pair_coeff 6 9   0.0252488   2.6944387
pair_coeff 8 10   0.0588643   3.2186954
pair_coeff 2 5   0.0000000   5.9160798
pair_coeff 6 9   0.0252488   2.6944387
pair_coeff 2 4   0.0000000   5.0000000
pair_coeff 5 10   0.0330000   3.5000000
pair_coeff 2 4   0.0000000   5.0000000
pair_coeff 6 8   0.0280624   2.6764155
pair_coeff 5 11   0.0157321   2.9103264
pair_coeff 5 9   0.0529623   3.2403703
pair_coeff 4 11   0.0106066   2.4596748
pair_coeff 4 11   0.0106066   2.4596748
pair_coeff 1 4   0.0357071   2.7928480
pair_coeff 4 9   0.0357071   2.7386128
pair_coeff 1 4   0.0357071   2.7928480
pair_coeff 4 11   0.0106066   2.4596748
pair_coeff 4 11   0.0106066   2.4596748
pair_coeff 4 9   0.0357071   2.7386128
pair_coeff 5 7   0.0416233   3.6228442
pair_coeff 7 11   0.0198431   3.0124741
pair_coeff 7 11   0.0198431   3.0124741
pair_coeff 6 8   0.0280624   2.6764155
pair_coeff 4 6   0.0106066   2.4596748
pair_coeff 4 6   0.0106066   2.4596748
pair_coeff 6 10   0.0157321   2.9103264
pair_coeff 4 6   0.0106066   2.4596748
pair_coeff 4 6   0.0106066   2.4596748
pair_coeff 4 4   0.0150000   2.5000000
pair_coeff 6 10   0.0157321   2.9103264
pair_coeff 4 4   0.0150000   2.5000000
pair_coeff 5 11   0.0157321   2.9103264
pair_coeff 7 10   0.0416233   3.6228442
pair_coeff 4 7   0.0280624   3.0618622
pair_coeff 4 7   0.0280624   3.0618622
pair_coeff 5 8   0.0588643   3.2186954
pair_coeff 4 7   0.0280624   3.0618622
pair_coeff 6 8   0.0280624   2.6764155
pair_coeff 5 8   0.0588643   3.2186954
pair_coeff 6 8   0.0280624   2.6764155
pair_coeff 6 8   0.0280624   2.6764155
pair_coeff 5 9   0.0529623   3.2403703
pair_coeff 6 8   0.0280624   2.6764155
pair_coeff 6 9   0.0252488   2.6944387
pair_coeff 3 6   0.0157321   2.9103264
pair_coeff 5 9   0.0529623   3.2403703
pair_coeff 6 9   0.0252488   2.6944387
pair_coeff 6 9   0.0252488   2.6944387
pair_coeff 5 12   0.0330000   3.5000000
pair_coeff 3 7   0.0416233   3.6228442
pair_coeff 6 9   0.0252488   2.6944387
pair_coeff 8 12   0.0588643   3.2186954
pair_coeff 4 5   0.0222486   2.9580399
pair_coeff 4 6   0.0106066   2.4596748
pair_coeff 5 10   0.0330000   3.5000000
pair_coeff 7 11   0.0198431   3.0124741
pair_coeff 4 5   0.0222486   2.9580399
pair_coeff 8 10   0.0588643   3.2186954
pair_coeff 7 11   0.0198431   3.0124741
pair_coeff 4 4   0.0150000   2.5000000
pair_coeff 7 11   0.0198431   3.0124741
pair_coeff 7 11   0.0198431   3.0124741
pair_coeff 4 4   0.0150000   2.5000000
pair_coeff 7 11   0.0198431   3.0124741
pair_coeff 5 7   0.0416233   3.6228442
pair_coeff 4 9   0.0357071   2.7386128
pair_coeff 4 11   0.0106066   2.4596748
pair_coeff 4 11   0.0106066   2.4596748
pair_coeff 1 5   0.0529623   3.3045423
pair_coeff 3 6   0.0157321   2.9103264
pair_coeff 4 9   0.0357071   2.7386128
pair_coeff 4 6   0.0106066   2.4596748
pair_coeff 4 11   0.0106066   2.4596748
pair_coeff 4 11   0.0106066   2.4596748
pair_coeff 5 9   0.0529623   3.2403703
pair_coeff 5 11   0.0157321   2.9103264
pair_coeff 5 11   0.0157321   2.9103264
pair_coeff 6 10   0.0157321   2.9103264
pair_coeff 4 6   0.0106066   2.4596748
pair_coeff 4 6   0.0106066   2.4596748
pair_coeff 4 6   0.0106066   2.4596748
pair_coeff 4 6   0.0106066   2.4596748
pair_coeff 6 10   0.0157321   2.9103264
pair_coeff 4 6   0.0106066   2.4596748
pair_coeff 4 7   0.0280624   3.0618622
pair_coeff 4 6   0.0106066   2.4596748
pair_coeff 5 8   0.0588643   3.2186954
pair_coeff 7 10   0.0416233   3.6228442
pair_coeff 4 7   0.0280624   3.0618622
pair_coeff 4 7   0.0280624   3.0618622

pair_modify mix arithmetic

thermo_style custom ebond eangle edihed eimp epair evdwl ecoul elong etail pe

run 0
