units real
atom_style full

dimension 3
boundary p p p

bond_style hybrid harmonic
angle_style hybrid harmonic
dihedral_style hybrid multi/harmonic
special_bonds lj 0.0 0.0 1.0 coul 0.0 0.0 0.5

read_data ETH-EVA_50wt_0000_replicate.lmp

pair_style lj/cut/coul/long 9.0 9.0
kspace_style pppm 1e-6
pair_coeff 1 1   0.0300000   2.5000000
pair_coeff 2 2   0.0660000   3.5000000
pair_coeff 3 3   0.0660000   3.5000000
pair_coeff 4 4   0.0660000   3.5000000
pair_coeff 5 5   0.1700000   3.0000000
pair_coeff 6 6   0.0150000   2.4200000
pair_coeff 7 7   0.1050000   3.7500000
pair_coeff 8 8   0.2100000   2.9600000
pair_coeff 1 1   0.0150000   2.5000000
pair_coeff 1 3   0.0222486   2.9580399
pair_coeff 1 3   0.0222486   2.9580399
pair_coeff 1 3   0.0222486   2.9580399
pair_coeff 1 1   0.0150000   2.5000000
pair_coeff 3 3   0.0330000   3.5000000
pair_coeff 1 1   0.0150000   2.5000000
pair_coeff 1 3   0.0222486   2.9580399
pair_coeff 1 3   0.0222486   2.9580399
pair_coeff 1 3   0.0222486   2.9580399
pair_coeff 1 1   0.0150000   2.5000000
pair_coeff 1 3   0.0222486   2.9580399
pair_coeff 1 1   0.0150000   2.5000000
pair_coeff 1 1   0.0150000   2.5000000
pair_coeff 1 3   0.0222486   2.9580399
pair_coeff 1 1   0.0150000   2.5000000
pair_coeff 1 1   0.0150000   2.5000000
pair_coeff 1 3   0.0222486   2.9580399
pair_coeff 1 1   0.0150000   2.5000000
pair_coeff 1 1   0.0150000   2.5000000
pair_coeff 3 3   0.0330000   3.5000000
pair_coeff 1 1   0.0150000   2.5000000
pair_coeff 1 3   0.0222486   2.9580399
pair_coeff 1 3   0.0222486   2.9580399
pair_coeff 1 3   0.0222486   2.9580399
pair_coeff 1 1   0.0150000   2.5000000
pair_coeff 3 4   0.0330000   3.5000000
pair_coeff 1 1   0.0150000   2.5000000
pair_coeff 1 4   0.0222486   2.9580399
pair_coeff 1 3   0.0222486   2.9580399
pair_coeff 1 4   0.0222486   2.9580399
pair_coeff 1 1   0.0150000   2.5000000
pair_coeff 1 3   0.0222486   2.9580399
pair_coeff 1 1   0.0150000   2.5000000
pair_coeff 1 1   0.0150000   2.5000000
pair_coeff 3 3   0.0330000   3.5000000
pair_coeff 1 1   0.0150000   2.5000000
pair_coeff 1 3   0.0222486   2.9580399
pair_coeff 1 3   0.0222486   2.9580399
pair_coeff 1 3   0.0222486   2.9580399
pair_coeff 1 1   0.0150000   2.5000000
pair_coeff 3 3   0.0330000   3.5000000
pair_coeff 1 1   0.0150000   2.5000000
pair_coeff 1 3   0.0222486   2.9580399
pair_coeff 3 5   0.0529623   3.2403703
pair_coeff 1 3   0.0222486   2.9580399
pair_coeff 1 5   0.0357071   2.7386128
pair_coeff 1 3   0.0222486   2.9580399
pair_coeff 1 5   0.0357071   2.7386128
pair_coeff 1 1   0.0150000   2.5000000
pair_coeff 3 6   0.0157321   2.9103264
pair_coeff 1 1   0.0150000   2.5000000
pair_coeff 1 6   0.0106066   2.4596748
pair_coeff 1 3   0.0222486   2.9580399
pair_coeff 1 6   0.0106066   2.4596748
pair_coeff 1 1   0.0150000   2.5000000
pair_coeff 3 7   0.0416233   3.6228442
pair_coeff 1 1   0.0150000   2.5000000
pair_coeff 6 7   0.0198431   3.0124741
pair_coeff 1 3   0.0222486   2.9580399
pair_coeff 2 4   0.0330000   3.5000000
pair_coeff 1 1   0.0150000   2.5000000
pair_coeff 1 3   0.0222486   2.9580399
pair_coeff 3 3   0.0330000   3.5000000
pair_coeff 1 3   0.0222486   2.9580399
pair_coeff 1 3   0.0222486   2.9580399
pair_coeff 1 3   0.0222486   2.9580399
pair_coeff 1 1   0.0150000   2.5000000
pair_coeff 1 1   0.0150000   2.5000000
pair_coeff 1 3   0.0222486   2.9580399
pair_coeff 1 1   0.0150000   2.5000000
pair_coeff 1 1   0.0150000   2.5000000
pair_coeff 1 3   0.0222486   2.9580399
pair_coeff 1 1   0.0150000   2.5000000
pair_coeff 1 1   0.0150000   2.5000000
pair_coeff 1 3   0.0222486   2.9580399
pair_coeff 1 1   0.0150000   2.5000000
pair_coeff 1 1   0.0150000   2.5000000
pair_coeff 3 3   0.0330000   3.5000000
pair_coeff 1 3   0.0222486   2.9580399
pair_coeff 1 3   0.0222486   2.9580399
pair_coeff 3 3   0.0330000   3.5000000
pair_coeff 1 3   0.0222486   2.9580399
pair_coeff 1 3   0.0222486   2.9580399
pair_coeff 1 3   0.0222486   2.9580399
pair_coeff 1 1   0.0150000   2.5000000
pair_coeff 1 1   0.0150000   2.5000000
pair_coeff 1 3   0.0222486   2.9580399
pair_coeff 1 1   0.0150000   2.5000000
pair_coeff 1 1   0.0150000   2.5000000
pair_coeff 1 3   0.0222486   2.9580399
pair_coeff 1 1   0.0150000   2.5000000
pair_coeff 1 1   0.0150000   2.5000000
pair_coeff 1 3   0.0222486   2.9580399
pair_coeff 1 4   0.0222486   2.9580399
pair_coeff 1 3   0.0222486   2.9580399
pair_coeff 1 4   0.0222486   2.9580399
pair_coeff 1 3   0.0222486   2.9580399
pair_coeff 1 1   0.0150000   2.5000000
pair_coeff 1 1   0.0150000   2.5000000
pair_coeff 1 4   0.0222486   2.9580399
pair_coeff 1 3   0.0222486   2.9580399
pair_coeff 1 1   0.0150000   2.5000000
pair_coeff 1 1   0.0150000   2.5000000
pair_coeff 1 3   0.0222486   2.9580399
pair_coeff 3 3   0.0330000   3.5000000
pair_coeff 1 4   0.0222486   2.9580399
pair_coeff 1 3   0.0222486   2.9580399
pair_coeff 1 1   0.0150000   2.5000000
pair_coeff 1 1   0.0150000   2.5000000
pair_coeff 1 1   0.0150000   2.5000000
pair_coeff 1 1   0.0150000   2.5000000
pair_coeff 1 1   0.0150000   2.5000000
pair_coeff 1 1   0.0150000   2.5000000
pair_coeff 1 1   0.0150000   2.5000000
pair_coeff 1 1   0.0150000   2.5000000
pair_coeff 1 3   0.0222486   2.9580399
pair_coeff 1 3   0.0222486   2.9580399
pair_coeff 3 4   0.0330000   3.5000000
pair_coeff 3 3   0.0330000   3.5000000
pair_coeff 1 1   0.0150000   2.5000000
pair_coeff 1 1   0.0150000   2.5000000
pair_coeff 1 3   0.0222486   2.9580399
pair_coeff 1 3   0.0222486   2.9580399
pair_coeff 1 1   0.0150000   2.5000000
pair_coeff 1 1   0.0150000   2.5000000
pair_coeff 1 3   0.0222486   2.9580399
pair_coeff 1 3   0.0222486   2.9580399
pair_coeff 3 5   0.0529623   3.2403703
pair_coeff 1 3   0.0222486   2.9580399
pair_coeff 3 3   0.0330000   3.5000000
pair_coeff 3 3   0.0330000   3.5000000
pair_coeff 1 5   0.0357071   2.7386128
pair_coeff 1 1   0.0150000   2.5000000
pair_coeff 1 3   0.0222486   2.9580399
pair_coeff 1 3   0.0222486   2.9580399
pair_coeff 1 5   0.0357071   2.7386128
pair_coeff 1 1   0.0150000   2.5000000
pair_coeff 1 3   0.0222486   2.9580399
pair_coeff 1 3   0.0222486   2.9580399
pair_coeff 3 6   0.0157321   2.9103264
pair_coeff 1 2   0.0222486   2.9580399
pair_coeff 1 3   0.0222486   2.9580399
pair_coeff 1 3   0.0222486   2.9580399
pair_coeff 1 6   0.0106066   2.4596748
pair_coeff 1 1   0.0150000   2.5000000
pair_coeff 1 1   0.0150000   2.5000000
pair_coeff 1 1   0.0150000   2.5000000
pair_coeff 1 6   0.0106066   2.4596748
pair_coeff 1 1   0.0150000   2.5000000
pair_coeff 1 1   0.0150000   2.5000000
pair_coeff 1 1   0.0150000   2.5000000
pair_coeff 3 7   0.0416233   3.6228442
pair_coeff 1 2   0.0222486   2.9580399
pair_coeff 1 3   0.0222486   2.9580399
pair_coeff 1 3   0.0222486   2.9580399
pair_coeff 6 7   0.0198431   3.0124741
pair_coeff 1 3   0.0222486   2.9580399
pair_coeff 1 1   0.0150000   2.5000000
pair_coeff 1 1   0.0150000   2.5000000
pair_coeff 2 4   0.0330000   3.5000000
pair_coeff 3 3   0.0330000   3.5000000
pair_coeff 1 1   0.0150000   2.5000000
pair_coeff 1 1   0.0150000   2.5000000
pair_coeff 4 8   0.0588643   3.2186954
pair_coeff 1 3   0.0222486   2.9580399
pair_coeff 1 3   0.0222486   2.9580399
pair_coeff 1 5   0.0357071   2.7386128
pair_coeff 1 1   0.0150000   2.5000000
pair_coeff 1 1   0.0150000   2.5000000
pair_coeff 1 8   0.0396863   2.7202941
pair_coeff 1 1   0.0150000   2.5000000
pair_coeff 1 3   0.0222486   2.9580399
pair_coeff 1 1   0.0150000   2.5000000
pair_coeff 1 5   0.0357071   2.7386128
pair_coeff 1 3   0.0222486   2.9580399
pair_coeff 3 4   0.0330000   3.5000000
pair_coeff 1 3   0.0222486   2.9580399
pair_coeff 1 8   0.0396863   2.7202941
pair_coeff 1 1   0.0150000   2.5000000
pair_coeff 1 3   0.0222486   2.9580399
pair_coeff 1 1   0.0150000   2.5000000
pair_coeff 1 5   0.0357071   2.7386128
pair_coeff 1 1   0.0150000   2.5000000
pair_coeff 3 3   0.0330000   3.5000000
pair_coeff 1 1   0.0150000   2.5000000
pair_coeff 1 8   0.0396863   2.7202941
pair_coeff 3 3   0.0330000   3.5000000
pair_coeff 1 1   0.0150000   2.5000000
pair_coeff 3 3   0.0330000   3.5000000
pair_coeff 3 3   0.0330000   3.5000000
pair_coeff 1 3   0.0222486   2.9580399
pair_coeff 1 1   0.0150000   2.5000000
pair_coeff 1 3   0.0222486   2.9580399
pair_coeff 1 3   0.0222486   2.9580399
pair_coeff 1 3   0.0222486   2.9580399
pair_coeff 1 3   0.0222486   2.9580399
pair_coeff 1 3   0.0222486   2.9580399
pair_coeff 1 3   0.0222486   2.9580399
pair_coeff 3 3   0.0330000   3.5000000
pair_coeff 1 1   0.0150000   2.5000000
pair_coeff 3 4   0.0330000   3.5000000
pair_coeff 3 7   0.0416233   3.6228442
pair_coeff 1 3   0.0222486   2.9580399
pair_coeff 1 1   0.0150000   2.5000000
pair_coeff 1 4   0.0222486   2.9580399
pair_coeff 3 3   0.0330000   3.5000000
pair_coeff 1 3   0.0222486   2.9580399
pair_coeff 1 3   0.0222486   2.9580399
pair_coeff 1 4   0.0222486   2.9580399
pair_coeff 3 5   0.0529623   3.2403703
pair_coeff 1 3   0.0222486   2.9580399
pair_coeff 1 1   0.0150000   2.5000000
pair_coeff 1 3   0.0222486   2.9580399
pair_coeff 3 6   0.0157321   2.9103264
pair_coeff 1 3   0.0222486   2.9580399
pair_coeff 1 1   0.0150000   2.5000000
pair_coeff 1 3   0.0222486   2.9580399
pair_coeff 1 3   0.0222486   2.9580399
pair_coeff 1 3   0.0222486   2.9580399
pair_coeff 1 1   0.0150000   2.5000000
pair_coeff 1 1   0.0150000   2.5000000
pair_coeff 1 1   0.0150000   2.5000000
pair_coeff 1 1   0.0150000   2.5000000
pair_coeff 1 3   0.0222486   2.9580399
pair_coeff 1 3   0.0222486   2.9580399
pair_coeff 1 1   0.0150000   2.5000000
pair_coeff 1 1   0.0150000   2.5000000
pair_coeff 1 1   0.0150000   2.5000000
pair_coeff 1 1   0.0150000   2.5000000
pair_coeff 3 3   0.0330000   3.5000000
pair_coeff 1 3   0.0222486   2.9580399
pair_coeff 1 3   0.0222486   2.9580399
pair_coeff 1 1   0.0150000   2.5000000
pair_coeff 1 3   0.0222486   2.9580399
pair_coeff 1 1   0.0150000   2.5000000
pair_coeff 3 4   0.0330000   3.5000000
pair_coeff 1 3   0.0222486   2.9580399
pair_coeff 1 4   0.0222486   2.9580399
pair_coeff 1 1   0.0150000   2.5000000
pair_coeff 1 4   0.0222486   2.9580399
pair_coeff 1 1   0.0150000   2.5000000
pair_coeff 1 3   0.0222486   2.9580399
pair_coeff 3 3   0.0330000   3.5000000
pair_coeff 1 1   0.0150000   2.5000000
pair_coeff 1 3   0.0222486   2.9580399
pair_coeff 1 1   0.0150000   2.5000000
pair_coeff 1 3   0.0222486   2.9580399
pair_coeff 1 3   0.0222486   2.9580399
pair_coeff 3 4   0.0330000   3.5000000
pair_coeff 1 1   0.0150000   2.5000000
pair_coeff 1 4   0.0222486   2.9580399
pair_coeff 1 1   0.0150000   2.5000000
pair_coeff 1 4   0.0222486   2.9580399
pair_coeff 3 5   0.0529623   3.2403703
pair_coeff 1 3   0.0222486   2.9580399
pair_coeff 1 5   0.0357071   2.7386128
pair_coeff 1 1   0.0150000   2.5000000
pair_coeff 1 5   0.0357071   2.7386128
pair_coeff 1 1   0.0150000   2.5000000
pair_coeff 3 6   0.0157321   2.9103264
pair_coeff 1 3   0.0222486   2.9580399
pair_coeff 1 6   0.0106066   2.4596748
pair_coeff 1 1   0.0150000   2.5000000
pair_coeff 1 6   0.0106066   2.4596748
pair_coeff 1 1   0.0150000   2.5000000
pair_coeff 3 7   0.0416233   3.6228442
pair_coeff 3 5   0.0529623   3.2403703
pair_coeff 6 7   0.0198431   3.0124741
pair_coeff 1 5   0.0357071   2.7386128
pair_coeff 2 4   0.0330000   3.5000000
pair_coeff 1 5   0.0357071   2.7386128
pair_coeff 4 8   0.0588643   3.2186954
pair_coeff 3 6   0.0157321   2.9103264
pair_coeff 1 5   0.0357071   2.7386128
pair_coeff 1 6   0.0106066   2.4596748
pair_coeff 1 8   0.0396863   2.7202941
pair_coeff 1 3   0.0222486   2.9580399
pair_coeff 1 3   0.0222486   2.9580399
pair_coeff 1 8   0.0396863   2.7202941
pair_coeff 1 1   0.0150000   2.5000000
pair_coeff 1 1   0.0150000   2.5000000
pair_coeff 3 7   0.0416233   3.6228442
pair_coeff 1 5   0.0357071   2.7386128
pair_coeff 1 1   0.0150000   2.5000000
pair_coeff 1 1   0.0150000   2.5000000
pair_coeff 1 8   0.0396863   2.7202941
pair_coeff 1 3   0.0222486   2.9580399
pair_coeff 3 5   0.0529623   3.2403703
pair_coeff 1 5   0.0357071   2.7386128
pair_coeff 1 1   0.0150000   2.5000000
pair_coeff 1 5   0.0357071   2.7386128
pair_coeff 1 3   0.0222486   2.9580399
pair_coeff 1 8   0.0396863   2.7202941
pair_coeff 1 1   0.0150000   2.5000000
pair_coeff 1 5   0.0357071   2.7386128
pair_coeff 3 3   0.0330000   3.5000000
pair_coeff 1 3   0.0222486   2.9580399
pair_coeff 3 6   0.0157321   2.9103264
pair_coeff 1 3   0.0222486   2.9580399
pair_coeff 1 3   0.0222486   2.9580399
pair_coeff 1 1   0.0150000   2.5000000
pair_coeff 1 6   0.0106066   2.4596748
pair_coeff 1 3   0.0222486   2.9580399
pair_coeff 1 1   0.0150000   2.5000000
pair_coeff 1 6   0.0106066   2.4596748
pair_coeff 3 6   0.0157321   2.9103264
pair_coeff 3 7   0.0416233   3.6228442
pair_coeff 1 3   0.0222486   2.9580399
pair_coeff 3 7   0.0416233   3.6228442
pair_coeff 3 3   0.0330000   3.5000000
pair_coeff 3 3   0.0330000   3.5000000
pair_coeff 1 1   0.0150000   2.5000000
pair_coeff 6 7   0.0198431   3.0124741
pair_coeff 3 5   0.0529623   3.2403703
pair_coeff 1 1   0.0150000   2.5000000
pair_coeff 2 4   0.0330000   3.5000000
pair_coeff 3 3   0.0330000   3.5000000
pair_coeff 3 6   0.0157321   2.9103264
pair_coeff 3 3   0.0330000   3.5000000
pair_coeff 4 8   0.0588643   3.2186954
pair_coeff 3 5   0.0529623   3.2403703
pair_coeff 1 3   0.0222486   2.9580399
pair_coeff 1 3   0.0222486   2.9580399
pair_coeff 1 5   0.0357071   2.7386128
pair_coeff 1 3   0.0222486   2.9580399
pair_coeff 1 5   0.0357071   2.7386128
pair_coeff 1 3   0.0222486   2.9580399
pair_coeff 1 8   0.0396863   2.7202941
pair_coeff 1 6   0.0106066   2.4596748
pair_coeff 3 3   0.0330000   3.5000000
pair_coeff 1 5   0.0357071   2.7386128
pair_coeff 1 1   0.0150000   2.5000000
pair_coeff 1 3   0.0222486   2.9580399
pair_coeff 1 3   0.0222486   2.9580399
pair_coeff 1 8   0.0396863   2.7202941
pair_coeff 1 1   0.0150000   2.5000000
pair_coeff 1 5   0.0357071   2.7386128
pair_coeff 1 3   0.0222486   2.9580399
pair_coeff 1 5   0.0357071   2.7386128
pair_coeff 1 4   0.0222486   2.9580399
pair_coeff 1 6   0.0106066   2.4596748
pair_coeff 1 3   0.0222486   2.9580399
pair_coeff 1 8   0.0396863   2.7202941
pair_coeff 1 1   0.0150000   2.5000000
pair_coeff 1 4   0.0222486   2.9580399
pair_coeff 1 1   0.0150000   2.5000000
pair_coeff 3 3   0.0330000   3.5000000
pair_coeff 1 1   0.0150000   2.5000000
pair_coeff 1 1   0.0150000   2.5000000
pair_coeff 1 1   0.0150000   2.5000000
pair_coeff 1 3   0.0222486   2.9580399
pair_coeff 3 4   0.0330000   3.5000000
pair_coeff 1 1   0.0150000   2.5000000
pair_coeff 1 3   0.0222486   2.9580399
pair_coeff 1 3   0.0222486   2.9580399
pair_coeff 1 3   0.0222486   2.9580399
pair_coeff 1 4   0.0222486   2.9580399
pair_coeff 1 1   0.0150000   2.5000000
pair_coeff 3 7   0.0416233   3.6228442
pair_coeff 3 3   0.0330000   3.5000000
pair_coeff 1 1   0.0150000   2.5000000
pair_coeff 1 1   0.0150000   2.5000000
pair_coeff 3 3   0.0330000   3.5000000
pair_coeff 1 3   0.0222486   2.9580399
pair_coeff 1 1   0.0150000   2.5000000
pair_coeff 1 3   0.0222486   2.9580399
pair_coeff 3 5   0.0529623   3.2403703
pair_coeff 1 3   0.0222486   2.9580399
pair_coeff 3 4   0.0330000   3.5000000
pair_coeff 1 1   0.0150000   2.5000000
pair_coeff 3 6   0.0157321   2.9103264
pair_coeff 1 5   0.0357071   2.7386128
pair_coeff 1 3   0.0222486   2.9580399
pair_coeff 1 1   0.0150000   2.5000000
pair_coeff 1 3   0.0222486   2.9580399
pair_coeff 1 6   0.0106066   2.4596748
pair_coeff 1 3   0.0222486   2.9580399
pair_coeff 1 3   0.0222486   2.9580399
pair_coeff 1 5   0.0357071   2.7386128
pair_coeff 1 3   0.0222486   2.9580399
pair_coeff 3 3   0.0330000   3.5000000
pair_coeff 1 1   0.0150000   2.5000000
pair_coeff 1 6   0.0106066   2.4596748
pair_coeff 1 5   0.0357071   2.7386128
pair_coeff 1 3   0.0222486   2.9580399
pair_coeff 1 1   0.0150000   2.5000000
pair_coeff 1 3   0.0222486   2.9580399
pair_coeff 1 6   0.0106066   2.4596748
pair_coeff 1 3   0.0222486   2.9580399
pair_coeff 3 3   0.0330000   3.5000000
pair_coeff 1 5   0.0357071   2.7386128
pair_coeff 1 4   0.0222486   2.9580399
pair_coeff 1 3   0.0222486   2.9580399
pair_coeff 4 8   0.0588643   3.2186954
pair_coeff 1 4   0.0222486   2.9580399
pair_coeff 1 3   0.0222486   2.9580399
pair_coeff 3 6   0.0157321   2.9103264
pair_coeff 1 1   0.0150000   2.5000000
pair_coeff 1 5   0.0357071   2.7386128
pair_coeff 1 6   0.0106066   2.4596748
pair_coeff 1 3   0.0222486   2.9580399
pair_coeff 1 3   0.0222486   2.9580399
pair_coeff 3 5   0.0529623   3.2403703
pair_coeff 1 8   0.0396863   2.7202941
pair_coeff 1 5   0.0357071   2.7386128
pair_coeff 1 1   0.0150000   2.5000000
pair_coeff 1 5   0.0357071   2.7386128
pair_coeff 1 5   0.0357071   2.7386128
pair_coeff 1 5   0.0357071   2.7386128
pair_coeff 1 3   0.0222486   2.9580399
pair_coeff 1 1   0.0150000   2.5000000
pair_coeff 1 6   0.0106066   2.4596748
pair_coeff 1 5   0.0357071   2.7386128
pair_coeff 1 8   0.0396863   2.7202941
pair_coeff 3 5   0.0529623   3.2403703
pair_coeff 1 3   0.0222486   2.9580399
pair_coeff 1 3   0.0222486   2.9580399
pair_coeff 3 6   0.0157321   2.9103264
pair_coeff 1 5   0.0357071   2.7386128
pair_coeff 3 6   0.0157321   2.9103264
pair_coeff 1 1   0.0150000   2.5000000
pair_coeff 1 5   0.0357071   2.7386128
pair_coeff 1 6   0.0106066   2.4596748
pair_coeff 1 8   0.0396863   2.7202941
pair_coeff 3 3   0.0330000   3.5000000
pair_coeff 1 1   0.0150000   2.5000000
pair_coeff 1 6   0.0106066   2.4596748
pair_coeff 1 6   0.0106066   2.4596748
pair_coeff 3 3   0.0330000   3.5000000
pair_coeff 3 7   0.0416233   3.6228442
pair_coeff 1 3   0.0222486   2.9580399
pair_coeff 1 4   0.0222486   2.9580399
pair_coeff 3 7   0.0416233   3.6228442
pair_coeff 1 3   0.0222486   2.9580399
pair_coeff 1 3   0.0222486   2.9580399
pair_coeff 1 1   0.0150000   2.5000000
pair_coeff 1 1   0.0150000   2.5000000
pair_coeff 6 7   0.0198431   3.0124741
pair_coeff 1 3   0.0222486   2.9580399
pair_coeff 1 3   0.0222486   2.9580399
pair_coeff 1 1   0.0150000   2.5000000
pair_coeff 1 1   0.0150000   2.5000000
pair_coeff 2 4   0.0330000   3.5000000
pair_coeff 3 7   0.0416233   3.6228442
pair_coeff 3 3   0.0330000   3.5000000
pair_coeff 1 3   0.0222486   2.9580399
pair_coeff 1 4   0.0222486   2.9580399
pair_coeff 4 8   0.0588643   3.2186954
pair_coeff 3 3   0.0330000   3.5000000
pair_coeff 1 8   0.0396863   2.7202941
pair_coeff 1 1   0.0150000   2.5000000
pair_coeff 1 1   0.0150000   2.5000000
pair_coeff 1 5   0.0357071   2.7386128
pair_coeff 3 5   0.0529623   3.2403703
pair_coeff 1 5   0.0357071   2.7386128
pair_coeff 1 1   0.0150000   2.5000000
pair_coeff 1 1   0.0150000   2.5000000
pair_coeff 1 8   0.0396863   2.7202941
pair_coeff 3 6   0.0157321   2.9103264
pair_coeff 1 8   0.0396863   2.7202941
pair_coeff 3 3   0.0330000   3.5000000
pair_coeff 3 4   0.0330000   3.5000000
pair_coeff 1 5   0.0357071   2.7386128
pair_coeff 1 3   0.0222486   2.9580399
pair_coeff 1 5   0.0357071   2.7386128
pair_coeff 1 3   0.0222486   2.9580399
pair_coeff 1 3   0.0222486   2.9580399
pair_coeff 1 8   0.0396863   2.7202941
pair_coeff 1 5   0.0357071   2.7386128
pair_coeff 1 1   0.0150000   2.5000000
pair_coeff 1 3   0.0222486   2.9580399
pair_coeff 1 3   0.0222486   2.9580399
pair_coeff 1 5   0.0357071   2.7386128
pair_coeff 1 6   0.0106066   2.4596748
pair_coeff 1 1   0.0150000   2.5000000
pair_coeff 3 4   0.0330000   3.5000000
pair_coeff 3 3   0.0330000   3.5000000
pair_coeff 1 8   0.0396863   2.7202941
pair_coeff 1 3   0.0222486   2.9580399
pair_coeff 1 1   0.0150000   2.5000000
pair_coeff 1 4   0.0222486   2.9580399
pair_coeff 1 3   0.0222486   2.9580399
pair_coeff 3 3   0.0330000   3.5000000
pair_coeff 1 5   0.0357071   2.7386128
pair_coeff 1 3   0.0222486   2.9580399
pair_coeff 1 4   0.0222486   2.9580399
pair_coeff 1 3   0.0222486   2.9580399
pair_coeff 1 3   0.0222486   2.9580399
pair_coeff 1 6   0.0106066   2.4596748
pair_coeff 3 4   0.0330000   3.5000000
pair_coeff 1 3   0.0222486   2.9580399
pair_coeff 1 3   0.0222486   2.9580399
pair_coeff 1 3   0.0222486   2.9580399
pair_coeff 1 4   0.0222486   2.9580399
pair_coeff 1 5   0.0357071   2.7386128
pair_coeff 1 1   0.0150000   2.5000000
pair_coeff 1 1   0.0150000   2.5000000
pair_coeff 3 7   0.0416233   3.6228442
pair_coeff 1 1   0.0150000   2.5000000
pair_coeff 1 3   0.0222486   2.9580399
pair_coeff 1 1   0.0150000   2.5000000
pair_coeff 1 1   0.0150000   2.5000000
pair_coeff 3 3   0.0330000   3.5000000
pair_coeff 1 1   0.0150000   2.5000000
pair_coeff 1 4   0.0222486   2.9580399
pair_coeff 1 3   0.0222486   2.9580399
pair_coeff 1 3   0.0222486   2.9580399
pair_coeff 3 5   0.0529623   3.2403703
pair_coeff 1 4   0.0222486   2.9580399
pair_coeff 1 1   0.0150000   2.5000000
pair_coeff 1 1   0.0150000   2.5000000
pair_coeff 3 6   0.0157321   2.9103264
pair_coeff 1 1   0.0150000   2.5000000
pair_coeff 1 1   0.0150000   2.5000000
pair_coeff 1 1   0.0150000   2.5000000
pair_coeff 1 3   0.0222486   2.9580399
pair_coeff 1 1   0.0150000   2.5000000
pair_coeff 1 3   0.0222486   2.9580399
pair_coeff 3 5   0.0529623   3.2403703
pair_coeff 1 3   0.0222486   2.9580399
pair_coeff 1 5   0.0357071   2.7386128
pair_coeff 3 4   0.0330000   3.5000000
pair_coeff 1 3   0.0222486   2.9580399
pair_coeff 1 5   0.0357071   2.7386128
pair_coeff 1 1   0.0150000   2.5000000
pair_coeff 1 6   0.0106066   2.4596748
pair_coeff 1 3   0.0222486   2.9580399
pair_coeff 1 3   0.0222486   2.9580399
pair_coeff 1 5   0.0357071   2.7386128
pair_coeff 1 1   0.0150000   2.5000000
pair_coeff 1 3   0.0222486   2.9580399
pair_coeff 1 3   0.0222486   2.9580399
pair_coeff 1 1   0.0150000   2.5000000
pair_coeff 3 6   0.0157321   2.9103264
pair_coeff 1 3   0.0222486   2.9580399
pair_coeff 1 5   0.0357071   2.7386128
pair_coeff 3 3   0.0330000   3.5000000
pair_coeff 3 3   0.0330000   3.5000000
pair_coeff 1 6   0.0106066   2.4596748
pair_coeff 1 1   0.0150000   2.5000000
pair_coeff 1 6   0.0106066   2.4596748
pair_coeff 1 3   0.0222486   2.9580399
pair_coeff 1 6   0.0106066   2.4596748
pair_coeff 1 6   0.0106066   2.4596748
pair_coeff 1 1   0.0150000   2.5000000
pair_coeff 1 4   0.0222486   2.9580399
pair_coeff 3 4   0.0330000   3.5000000
pair_coeff 1 1   0.0150000   2.5000000
pair_coeff 1 1   0.0150000   2.5000000
pair_coeff 1 5   0.0357071   2.7386128
pair_coeff 3 5   0.0529623   3.2403703
pair_coeff 1 3   0.0222486   2.9580399
pair_coeff 1 3   0.0222486   2.9580399
pair_coeff 1 1   0.0150000   2.5000000
pair_coeff 1 8   0.0396863   2.7202941
pair_coeff 1 5   0.0357071   2.7386128
pair_coeff 1 1   0.0150000   2.5000000
pair_coeff 1 3   0.0222486   2.9580399
pair_coeff 1 5   0.0357071   2.7386128
pair_coeff 1 5   0.0357071   2.7386128
pair_coeff 1 3   0.0222486   2.9580399
pair_coeff 1 1   0.0150000   2.5000000
pair_coeff 1 1   0.0150000   2.5000000
pair_coeff 1 8   0.0396863   2.7202941
pair_coeff 3 6   0.0157321   2.9103264
pair_coeff 3 3   0.0330000   3.5000000
pair_coeff 1 3   0.0222486   2.9580399
pair_coeff 1 1   0.0150000   2.5000000
pair_coeff 3 3   0.0330000   3.5000000
pair_coeff 1 6   0.0106066   2.4596748
pair_coeff 1 1   0.0150000   2.5000000
pair_coeff 1 1   0.0150000   2.5000000
pair_coeff 1 3   0.0222486   2.9580399
pair_coeff 1 3   0.0222486   2.9580399
pair_coeff 1 6   0.0106066   2.4596748
pair_coeff 1 5   0.0357071   2.7386128
pair_coeff 1 1   0.0150000   2.5000000
pair_coeff 1 1   0.0150000   2.5000000
pair_coeff 1 3   0.0222486   2.9580399
pair_coeff 3 7   0.0416233   3.6228442
pair_coeff 2 3   0.0330000   3.5000000
pair_coeff 3 3   0.0330000   3.5000000
pair_coeff 1 1   0.0150000   2.5000000
pair_coeff 3 7   0.0416233   3.6228442
pair_coeff 6 7   0.0198431   3.0124741
pair_coeff 1 5   0.0357071   2.7386128
pair_coeff 1 3   0.0222486   2.9580399
pair_coeff 3 3   0.0330000   3.5000000
pair_coeff 3 3   0.0330000   3.5000000
pair_coeff 2 4   0.0330000   3.5000000
pair_coeff 1 8   0.0396863   2.7202941
pair_coeff 1 3   0.0222486   2.9580399
pair_coeff 1 3   0.0222486   2.9580399
pair_coeff 3 5   0.0529623   3.2403703
pair_coeff 4 8   0.0588643   3.2186954
pair_coeff 1 8   0.0396863   2.7202941
pair_coeff 3 3   0.0330000   3.5000000
pair_coeff 1 3   0.0222486   2.9580399
pair_coeff 3 6   0.0157321   2.9103264
pair_coeff 1 5   0.0357071   2.7386128
pair_coeff 1 5   0.0357071   2.7386128
pair_coeff 1 3   0.0222486   2.9580399
pair_coeff 3 3   0.0330000   3.5000000
pair_coeff 1 3   0.0222486   2.9580399
pair_coeff 1 8   0.0396863   2.7202941
pair_coeff 4 8   0.0588643   3.2186954
pair_coeff 1 3   0.0222486   2.9580399
pair_coeff 1 3   0.0222486   2.9580399
pair_coeff 1 5   0.0357071   2.7386128
pair_coeff 1 5   0.0357071   2.7386128
pair_coeff 2 4   0.0330000   3.5000000
pair_coeff 1 3   0.0222486   2.9580399
pair_coeff 1 3   0.0222486   2.9580399
pair_coeff 1 6   0.0106066   2.4596748
pair_coeff 1 8   0.0396863   2.7202941
pair_coeff 6 7   0.0198431   3.0124741
pair_coeff 1 1   0.0150000   2.5000000
pair_coeff 1 3   0.0222486   2.9580399
pair_coeff 1 3   0.0222486   2.9580399
pair_coeff 1 5   0.0357071   2.7386128
pair_coeff 3 7   0.0416233   3.6228442
pair_coeff 1 1   0.0150000   2.5000000
pair_coeff 1 1   0.0150000   2.5000000
pair_coeff 1 5   0.0357071   2.7386128
pair_coeff 1 8   0.0396863   2.7202941
pair_coeff 1 6   0.0106066   2.4596748
pair_coeff 1 3   0.0222486   2.9580399
pair_coeff 1 1   0.0150000   2.5000000
pair_coeff 1 6   0.0106066   2.4596748
pair_coeff 3 3   0.0330000   3.5000000
pair_coeff 1 8   0.0396863   2.7202941
pair_coeff 1 1   0.0150000   2.5000000
pair_coeff 1 3   0.0222486   2.9580399
pair_coeff 1 4   0.0222486   2.9580399
pair_coeff 1 3   0.0222486   2.9580399
pair_coeff 1 6   0.0106066   2.4596748
pair_coeff 1 1   0.0150000   2.5000000
pair_coeff 1 1   0.0150000   2.5000000
pair_coeff 1 1   0.0150000   2.5000000
pair_coeff 1 3   0.0222486   2.9580399
pair_coeff 3 6   0.0157321   2.9103264
pair_coeff 1 3   0.0222486   2.9580399
pair_coeff 1 1   0.0150000   2.5000000
pair_coeff 1 1   0.0150000   2.5000000
pair_coeff 3 7   0.0416233   3.6228442
pair_coeff 1 5   0.0357071   2.7386128
pair_coeff 1 1   0.0150000   2.5000000
pair_coeff 1 3   0.0222486   2.9580399
pair_coeff 1 4   0.0222486   2.9580399
pair_coeff 3 3   0.0330000   3.5000000
pair_coeff 1 5   0.0357071   2.7386128
pair_coeff 1 1   0.0150000   2.5000000
pair_coeff 1 1   0.0150000   2.5000000
pair_coeff 1 1   0.0150000   2.5000000
pair_coeff 3 5   0.0529623   3.2403703
pair_coeff 3 5   0.0529623   3.2403703
pair_coeff 1 3   0.0222486   2.9580399
pair_coeff 1 1   0.0150000   2.5000000
pair_coeff 1 1   0.0150000   2.5000000
pair_coeff 3 6   0.0157321   2.9103264
pair_coeff 1 1   0.0150000   2.5000000
pair_coeff 1 1   0.0150000   2.5000000
pair_coeff 1 3   0.0222486   2.9580399
pair_coeff 3 4   0.0330000   3.5000000
pair_coeff 1 3   0.0222486   2.9580399
pair_coeff 1 1   0.0150000   2.5000000
pair_coeff 1 1   0.0150000   2.5000000
pair_coeff 1 1   0.0150000   2.5000000
pair_coeff 1 3   0.0222486   2.9580399
pair_coeff 1 5   0.0357071   2.7386128
pair_coeff 1 3   0.0222486   2.9580399
pair_coeff 3 3   0.0330000   3.5000000
pair_coeff 1 1   0.0150000   2.5000000
pair_coeff 1 3   0.0222486   2.9580399
pair_coeff 1 6   0.0106066   2.4596748
pair_coeff 1 1   0.0150000   2.5000000
pair_coeff 1 3   0.0222486   2.9580399
pair_coeff 3 3   0.0330000   3.5000000
pair_coeff 3 3   0.0330000   3.5000000
pair_coeff 1 3   0.0222486   2.9580399
pair_coeff 1 1   0.0150000   2.5000000
pair_coeff 1 3   0.0222486   2.9580399
pair_coeff 1 3   0.0222486   2.9580399
pair_coeff 1 3   0.0222486   2.9580399
pair_coeff 1 5   0.0357071   2.7386128
pair_coeff 1 3   0.0222486   2.9580399
pair_coeff 3 4   0.0330000   3.5000000
pair_coeff 1 3   0.0222486   2.9580399
pair_coeff 1 3   0.0222486   2.9580399
pair_coeff 1 6   0.0106066   2.4596748
pair_coeff 1 4   0.0222486   2.9580399
pair_coeff 1 4   0.0222486   2.9580399
pair_coeff 3 4   0.0330000   3.5000000
pair_coeff 1 3   0.0222486   2.9580399
pair_coeff 1 4   0.0222486   2.9580399
pair_coeff 1 4   0.0222486   2.9580399
pair_coeff 1 4   0.0222486   2.9580399
pair_coeff 1 4   0.0222486   2.9580399
pair_coeff 1 1   0.0150000   2.5000000
pair_coeff 1 1   0.0150000   2.5000000
pair_coeff 1 1   0.0150000   2.5000000
pair_coeff 1 1   0.0150000   2.5000000
pair_coeff 1 4   0.0222486   2.9580399
pair_coeff 1 3   0.0222486   2.9580399
pair_coeff 1 1   0.0150000   2.5000000
pair_coeff 1 1   0.0150000   2.5000000
pair_coeff 1 3   0.0222486   2.9580399
pair_coeff 1 1   0.0150000   2.5000000
pair_coeff 1 3   0.0222486   2.9580399
pair_coeff 1 3   0.0222486   2.9580399
pair_coeff 1 1   0.0150000   2.5000000
pair_coeff 1 1   0.0150000   2.5000000
pair_coeff 1 1   0.0150000   2.5000000
pair_coeff 1 1   0.0150000   2.5000000
pair_coeff 1 1   0.0150000   2.5000000
pair_coeff 1 3   0.0222486   2.9580399
pair_coeff 1 1   0.0150000   2.5000000
pair_coeff 2 4   0.0330000   3.5000000
pair_coeff 1 3   0.0222486   2.9580399
pair_coeff 1 1   0.0150000   2.5000000
pair_coeff 1 3   0.0222486   2.9580399
pair_coeff 1 1   0.0150000   2.5000000
pair_coeff 1 1   0.0150000   2.5000000
pair_coeff 1 1   0.0150000   2.5000000
pair_coeff 1 1   0.0150000   2.5000000
pair_coeff 3 3   0.0330000   3.5000000
pair_coeff 1 1   0.0150000   2.5000000
pair_coeff 1 3   0.0222486   2.9580399
pair_coeff 1 1   0.0150000   2.5000000
pair_coeff 1 3   0.0222486   2.9580399
pair_coeff 3 5   0.0529623   3.2403703
pair_coeff 1 1   0.0150000   2.5000000
pair_coeff 1 3   0.0222486   2.9580399
pair_coeff 1 3   0.0222486   2.9580399
pair_coeff 1 5   0.0357071   2.7386128
pair_coeff 1 1   0.0150000   2.5000000
pair_coeff 1 1   0.0150000   2.5000000
pair_coeff 4 8   0.0588643   3.2186954
pair_coeff 1 5   0.0357071   2.7386128
pair_coeff 3 3   0.0330000   3.5000000
pair_coeff 1 1   0.0150000   2.5000000
pair_coeff 3 4   0.0330000   3.5000000
pair_coeff 3 6   0.0157321   2.9103264
pair_coeff 1 3   0.0222486   2.9580399
pair_coeff 3 3   0.0330000   3.5000000
pair_coeff 1 4   0.0222486   2.9580399
pair_coeff 1 6   0.0106066   2.4596748
pair_coeff 1 3   0.0222486   2.9580399
pair_coeff 1 3   0.0222486   2.9580399
pair_coeff 1 3   0.0222486   2.9580399
pair_coeff 1 6   0.0106066   2.4596748
pair_coeff 3 3   0.0330000   3.5000000