units real
atom_style full

dimension 3
boundary p p p

bond_style hybrid harmonic
angle_style hybrid harmonic
dihedral_style hybrid multi/harmonic
special_bonds lj 0.0 0.0 1.0 coul 0.0 0.0 0.5

read_data two_molecules_replicate.lmp

pair_style lj/cut/coul/long 10.0 10.0
kspace_style pppm 1e-6
pair_coeff 1 1   0.0660000   3.5000000
pair_coeff 2 2   0.0300000   2.5000000
pair_coeff 3 3   0.0660000   3.5000000
pair_coeff 2 3   0.0222486   2.9580399
pair_coeff 2 2   0.0150000   2.5000000
pair_coeff 2 3   0.0222486   2.9580399
pair_coeff 2 3   0.0222486   2.9580399
pair_coeff 2 3   0.0222486   2.9580399
pair_coeff 2 2   0.0150000   2.5000000
pair_coeff 2 2   0.0150000   2.5000000
pair_coeff 2 3   0.0222486   2.9580399
pair_coeff 2 2   0.0150000   2.5000000
pair_coeff 2 2   0.0150000   2.5000000
pair_coeff 2 3   0.0222486   2.9580399
pair_coeff 2 2   0.0150000   2.5000000
pair_coeff 1 2   0.0222486   2.9580399
pair_coeff 1 2   0.0222486   2.9580399
pair_coeff 2 2   0.0150000   2.5000000
pair_coeff 2 2   0.0150000   2.5000000
pair_coeff 2 2   0.0150000   2.5000000
pair_coeff 1 2   0.0222486   2.9580399
pair_coeff 2 2   0.0150000   2.5000000
pair_coeff 1 1   0.0330000   3.5000000
pair_coeff 2 2   0.0150000   2.5000000
pair_coeff 2 2   0.0150000   2.5000000
pair_coeff 2 2   0.0150000   2.5000000
pair_coeff 2 2   0.0150000   2.5000000
pair_coeff 2 2   0.0150000   2.5000000
pair_coeff 1 2   0.0222486   2.9580399
pair_coeff 2 2   0.0150000   2.5000000
pair_coeff 4 4   0.1050000   3.7500000
pair_coeff 5 5   0.2100000   2.9600000
pair_coeff 6 6   0.0150000   2.4200000
pair_coeff 7 7   0.0150000   2.4200000
pair_coeff 2 3   0.0157321   2.9103264
pair_coeff 2 2   0.0157321   2.9103264
pair_coeff 1 2   0.0222486   2.9580399
pair_coeff 1 3   0.0150000   2.5000000
pair_coeff 2 3   0.0280624   2.6764155
pair_coeff 2 3   0.0075000   2.4200000
pair_coeff 1 2   0.0150000   2.5000000
pair_coeff 2 2   0.0280624   2.6764155
pair_coeff 2 2   0.0222486   2.9580399
pair_coeff 2 2   0.0075000   2.4200000
pair_coeff 2 3   0.0150000   2.5000000
pair_coeff 2 2   0.0588643   3.2186954
pair_coeff 2 2   0.0150000   2.5000000
pair_coeff 2 2   0.0157321   2.9103264
pair_coeff 2 2   0.0222486   2.9580399
pair_coeff 1 3   0.0280624   3.0618622
pair_coeff 2 3   0.0150000   2.5000000
pair_coeff 3 3   0.0106066   2.4596748
pair_coeff 2 2   0.0150000   2.5000000
pair_coeff 2 3   0.0106066   2.4596748
pair_coeff 1 2   0.0280624   3.0618622
pair_coeff 2 3   0.0106066   2.4596748
pair_coeff 2 2   0.0106066   2.4596748
pair_coeff 1 2   0.0416233   3.6228442

pair_modify mix geometric

thermo_style custom ebond eangle edihed eimp epair evdwl ecoul elong etail pe

run 0
