units real
atom_style full

dimension 3
boundary p p p

bond_style hybrid harmonic
angle_style hybrid harmonic
dihedral_style hybrid multi/harmonic
special_bonds lj 0.0 0.0 1.0 coul 0.0 0.0 0.5

read_data model01_000_replicate.lmp

pair_style lj/cut/coul/long 9.0 9.0
kspace_style pppm 1e-6
pair_coeff 1 1   0.0660000   3.5000000
pair_coeff 2 2   0.0300000   2.5000000
pair_coeff 3 3   0.0660000   3.5000000
pair_coeff 4 4   0.0262906   2.5000000
pair_coeff 1 3   0.0330000   3.5000000
pair_coeff 1 4   0.0208278   2.9580399
pair_coeff 2 4   0.0140421   2.5000000
pair_coeff 2 4   0.0140421   2.5000000
pair_coeff 3 4   0.0208278   2.9580399
pair_coeff 4 4   0.0131453   2.5000000
pair_coeff 2 3   0.0222486   2.9580399
pair_coeff 1 4   0.0208278   2.9580399
pair_coeff 2 4   0.0140421   2.5000000
pair_coeff 2 4   0.0140421   2.5000000
pair_coeff 4 4   0.0131453   2.5000000
pair_coeff 2 4   0.0140421   2.5000000
pair_coeff 4 4   0.0131453   2.5000000
pair_coeff 4 4   0.0131453   2.5000000
pair_coeff 2 3   0.0222486   2.9580399
pair_coeff 3 4   0.0208278   2.9580399
pair_coeff 3 4   0.0208278   2.9580399
pair_coeff 4 4   0.0131453   2.5000000
pair_coeff 3 4   0.0208278   2.9580399
pair_coeff 2 4   0.0140421   2.5000000
pair_coeff 2 4   0.0140421   2.5000000
pair_coeff 4 4   0.0131453   2.5000000
pair_coeff 2 4   0.0140421   2.5000000
pair_coeff 2 4   0.0140421   2.5000000
pair_coeff 4 4   0.0131453   2.5000000
pair_coeff 2 3   0.0222486   2.9580399
pair_coeff 2 3   0.0222486   2.9580399
pair_coeff 3 4   0.0208278   2.9580399
pair_coeff 1 4   0.0208278   2.9580399
pair_coeff 2 3   0.0222486   2.9580399
pair_coeff 3 4   0.0208278   2.9580399
pair_coeff 1 4   0.0208278   2.9580399
pair_coeff 4 4   0.0131453   2.5000000
pair_coeff 2 4   0.0140421   2.5000000
pair_coeff 1 3   0.0330000   3.5000000
pair_coeff 2 3   0.0222486   2.9580399
pair_coeff 4 4   0.0131453   2.5000000
pair_coeff 4 4   0.0131453   2.5000000
pair_coeff 2 4   0.0140421   2.5000000
pair_coeff 3 3   0.0330000   3.5000000
pair_coeff 3 4   0.0208278   2.9580399
pair_coeff 4 4   0.0131453   2.5000000
pair_coeff 4 4   0.0131453   2.5000000
pair_coeff 3 4   0.0208278   2.9580399
pair_coeff 2 4   0.0140421   2.5000000

pair_modify mix arithmetic

thermo_style custom ebond eangle edihed eimp epair evdwl ecoul elong etail pe

run 0
