units real
atom_style full

dimension 3
boundary p p p

bond_style hybrid harmonic
angle_style hybrid harmonic
dihedral_style hybrid multi/harmonic
special_bonds lj 0.0 0.0 0.5 coul 0.0 0.0 0.5

read_data ../01-CREATE/C150_1fold_initial_new_replicate.lmp

pair_style lj/cut/coul/long 9.0 9.0
kspace_style pppm 1e-6
pair_coeff 1 1   0.0660000   3.5000000
pair_coeff 2 2   0.0300000   2.5000000
pair_coeff 3 3   0.0660000   3.5000000
pair_coeff 3 3   0.0330000   3.5000000
pair_coeff 2 3   0.0222486   2.9580399
pair_coeff 2 3   0.0222486   2.9580399
pair_coeff 2 2   0.0150000   2.5000000
pair_coeff 2 3   0.0222486   2.9580399
pair_coeff 2 2   0.0150000   2.5000000
pair_coeff 2 3   0.0222486   2.9580399
pair_coeff 3 3   0.0330000   3.5000000
pair_coeff 2 2   0.0150000   2.5000000
pair_coeff 2 3   0.0222486   2.9580399
pair_coeff 2 2   0.0150000   2.5000000
pair_coeff 2 3   0.0222486   2.9580399
pair_coeff 2 3   0.0222486   2.9580399
pair_coeff 2 3   0.0222486   2.9580399
pair_coeff 2 2   0.0150000   2.5000000
pair_coeff 2 2   0.0150000   2.5000000
pair_coeff 2 2   0.0150000   2.5000000
pair_coeff 2 2   0.0150000   2.5000000
pair_coeff 3 3   0.0330000   3.5000000
pair_coeff 2 3   0.0222486   2.9580399
pair_coeff 2 3   0.0222486   2.9580399
pair_coeff 2 2   0.0150000   2.5000000
pair_coeff 2 3   0.0222486   2.9580399
pair_coeff 2 2   0.0150000   2.5000000
pair_coeff 2 3   0.0222486   2.9580399
pair_coeff 3 3   0.0330000   3.5000000
pair_coeff 2 2   0.0150000   2.5000000
pair_coeff 2 3   0.0222486   2.9580399
pair_coeff 2 2   0.0150000   2.5000000
pair_coeff 2 3   0.0222486   2.9580399
pair_coeff 2 3   0.0222486   2.9580399
pair_coeff 2 3   0.0222486   2.9580399
pair_coeff 2 2   0.0150000   2.5000000
pair_coeff 2 2   0.0150000   2.5000000
pair_coeff 2 2   0.0150000   2.5000000
pair_coeff 2 2   0.0150000   2.5000000
pair_coeff 3 3   0.0330000   3.5000000
pair_coeff 2 3   0.0222486   2.9580399
pair_coeff 2 3   0.0222486   2.9580399
pair_coeff 2 2   0.0150000   2.5000000
pair_coeff 2 3   0.0222486   2.9580399
pair_coeff 2 2   0.0150000   2.5000000
pair_coeff 2 3   0.0222486   2.9580399
pair_coeff 3 3   0.0330000   3.5000000
pair_coeff 2 2   0.0150000   2.5000000
pair_coeff 2 3   0.0222486   2.9580399
pair_coeff 2 2   0.0150000   2.5000000
pair_coeff 2 3   0.0222486   2.9580399
pair_coeff 2 3   0.0222486   2.9580399
pair_coeff 2 3   0.0222486   2.9580399
pair_coeff 2 2   0.0150000   2.5000000
pair_coeff 2 2   0.0150000   2.5000000
pair_coeff 2 2   0.0150000   2.5000000
pair_coeff 2 2   0.0150000   2.5000000
pair_coeff 3 3   0.0330000   3.5000000
pair_coeff 2 3   0.0222486   2.9580399
pair_coeff 2 3   0.0222486   2.9580399
pair_coeff 2 2   0.0150000   2.5000000
pair_coeff 2 3   0.0222486   2.9580399
pair_coeff 2 2   0.0150000   2.5000000
pair_coeff 2 3   0.0222486   2.9580399
pair_coeff 3 3   0.0330000   3.5000000
pair_coeff 2 3   0.0222486   2.9580399
pair_coeff 2 3   0.0222486   2.9580399
pair_coeff 2 2   0.0150000   2.5000000
pair_coeff 2 2   0.0150000   2.5000000
pair_coeff 2 3   0.0222486   2.9580399
pair_coeff 2 2   0.0150000   2.5000000
pair_coeff 2 2   0.0150000   2.5000000
pair_coeff 3 3   0.0330000   3.5000000
pair_coeff 2 3   0.0222486   2.9580399
pair_coeff 2 3   0.0222486   2.9580399
pair_coeff 2 3   0.0222486   2.9580399
pair_coeff 2 2   0.0150000   2.5000000
pair_coeff 2 2   0.0150000   2.5000000
pair_coeff 2 3   0.0222486   2.9580399
pair_coeff 2 2   0.0150000   2.5000000
pair_coeff 2 2   0.0150000   2.5000000
pair_coeff 3 3   0.0330000   3.5000000
pair_coeff 2 3   0.0222486   2.9580399
pair_coeff 2 3   0.0222486   2.9580399
pair_coeff 2 3   0.0222486   2.9580399
pair_coeff 2 2   0.0150000   2.5000000
pair_coeff 2 2   0.0150000   2.5000000
pair_coeff 2 3   0.0222486   2.9580399
pair_coeff 2 2   0.0150000   2.5000000
pair_coeff 2 2   0.0150000   2.5000000
pair_coeff 3 3   0.0330000   3.5000000
pair_coeff 2 3   0.0222486   2.9580399
pair_coeff 2 3   0.0222486   2.9580399
pair_coeff 2 3   0.0222486   2.9580399
pair_coeff 2 2   0.0150000   2.5000000
pair_coeff 2 2   0.0150000   2.5000000
pair_coeff 2 3   0.0222486   2.9580399
pair_coeff 2 2   0.0150000   2.5000000
pair_coeff 2 2   0.0150000   2.5000000
pair_coeff 2 3   0.0222486   2.9580399
pair_coeff 2 2   0.0150000   2.5000000
pair_coeff 2 2   0.0150000   2.5000000
pair_coeff 3 3   0.0330000   3.5000000
pair_coeff 2 3   0.0222486   2.9580399
pair_coeff 2 3   0.0222486   2.9580399
pair_coeff 2 3   0.0222486   2.9580399
pair_coeff 2 2   0.0150000   2.5000000
pair_coeff 2 2   0.0150000   2.5000000
pair_coeff 2 3   0.0222486   2.9580399
pair_coeff 2 2   0.0150000   2.5000000
pair_coeff 2 2   0.0150000   2.5000000
pair_coeff 3 3   0.0330000   3.5000000
pair_coeff 2 3   0.0222486   2.9580399
pair_coeff 2 3   0.0222486   2.9580399
pair_coeff 2 3   0.0222486   2.9580399
pair_coeff 2 2   0.0150000   2.5000000
pair_coeff 2 2   0.0150000   2.5000000
pair_coeff 2 3   0.0222486   2.9580399
pair_coeff 2 2   0.0150000   2.5000000
pair_coeff 2 2   0.0150000   2.5000000
pair_coeff 3 3   0.0330000   3.5000000
pair_coeff 2 3   0.0222486   2.9580399
pair_coeff 2 3   0.0222486   2.9580399
pair_coeff 2 3   0.0222486   2.9580399
pair_coeff 2 2   0.0150000   2.5000000
pair_coeff 2 2   0.0150000   2.5000000
pair_coeff 2 3   0.0222486   2.9580399
pair_coeff 2 2   0.0150000   2.5000000
pair_coeff 2 2   0.0150000   2.5000000
pair_coeff 2 3   0.0222486   2.9580399
pair_coeff 2 2   0.0150000   2.5000000
pair_coeff 2 3   0.0222486   2.9580399
pair_coeff 2 2   0.0150000   2.5000000
pair_coeff 2 3   0.0222486   2.9580399
pair_coeff 2 2   0.0150000   2.5000000
pair_coeff 2 2   0.0150000   2.5000000
pair_coeff 2 3   0.0222486   2.9580399
pair_coeff 2 3   0.0222486   2.9580399
pair_coeff 3 3   0.0330000   3.5000000
pair_coeff 2 2   0.0150000   2.5000000
pair_coeff 2 2   0.0150000   2.5000000
pair_coeff 2 2   0.0150000   2.5000000
pair_coeff 2 3   0.0222486   2.9580399
pair_coeff 3 3   0.0330000   3.5000000
pair_coeff 2 2   0.0150000   2.5000000
pair_coeff 2 2   0.0150000   2.5000000
pair_coeff 2 3   0.0222486   2.9580399
pair_coeff 2 3   0.0222486   2.9580399
pair_coeff 3 3   0.0330000   3.5000000
pair_coeff 2 3   0.0222486   2.9580399
pair_coeff 2 3   0.0222486   2.9580399
pair_coeff 2 3   0.0222486   2.9580399
pair_coeff 2 3   0.0222486   2.9580399
pair_coeff 2 2   0.0150000   2.5000000
pair_coeff 2 2   0.0150000   2.5000000
pair_coeff 2 3   0.0222486   2.9580399
pair_coeff 2 3   0.0222486   2.9580399
pair_coeff 2 2   0.0150000   2.5000000
pair_coeff 2 2   0.0150000   2.5000000
pair_coeff 2 2   0.0150000   2.5000000
pair_coeff 2 3   0.0222486   2.9580399
pair_coeff 3 3   0.0330000   3.5000000
pair_coeff 2 3   0.0222486   2.9580399
pair_coeff 2 2   0.0150000   2.5000000
pair_coeff 2 2   0.0150000   2.5000000
pair_coeff 2 3   0.0222486   2.9580399
pair_coeff 2 2   0.0150000   2.5000000
pair_coeff 2 3   0.0222486   2.9580399
pair_coeff 2 2   0.0150000   2.5000000
pair_coeff 2 3   0.0222486   2.9580399
pair_coeff 2 2   0.0150000   2.5000000
pair_coeff 2 2   0.0150000   2.5000000
pair_coeff 2 3   0.0222486   2.9580399
pair_coeff 2 3   0.0222486   2.9580399
pair_coeff 3 3   0.0330000   3.5000000
pair_coeff 2 2   0.0150000   2.5000000
pair_coeff 2 2   0.0150000   2.5000000
pair_coeff 2 2   0.0150000   2.5000000
pair_coeff 2 3   0.0222486   2.9580399
pair_coeff 3 3   0.0330000   3.5000000
pair_coeff 2 2   0.0150000   2.5000000
pair_coeff 2 2   0.0150000   2.5000000
pair_coeff 2 3   0.0222486   2.9580399
pair_coeff 2 3   0.0222486   2.9580399
pair_coeff 3 3   0.0330000   3.5000000
pair_coeff 2 3   0.0222486   2.9580399
pair_coeff 2 3   0.0222486   2.9580399
pair_coeff 2 3   0.0222486   2.9580399
pair_coeff 2 3   0.0222486   2.9580399
pair_coeff 2 2   0.0150000   2.5000000
pair_coeff 2 2   0.0150000   2.5000000
pair_coeff 2 3   0.0222486   2.9580399
pair_coeff 2 3   0.0222486   2.9580399
pair_coeff 2 2   0.0150000   2.5000000
pair_coeff 2 2   0.0150000   2.5000000
pair_coeff 2 2   0.0150000   2.5000000
pair_coeff 2 3   0.0222486   2.9580399
pair_coeff 3 3   0.0330000   3.5000000
pair_coeff 2 3   0.0222486   2.9580399
pair_coeff 2 2   0.0150000   2.5000000
pair_coeff 2 2   0.0150000   2.5000000
pair_coeff 2 3   0.0222486   2.9580399
pair_coeff 2 2   0.0150000   2.5000000
pair_coeff 2 3   0.0222486   2.9580399
pair_coeff 2 2   0.0150000   2.5000000
pair_coeff 2 3   0.0222486   2.9580399
pair_coeff 2 2   0.0150000   2.5000000
pair_coeff 2 2   0.0150000   2.5000000
pair_coeff 2 3   0.0222486   2.9580399
pair_coeff 2 3   0.0222486   2.9580399
pair_coeff 3 3   0.0330000   3.5000000
pair_coeff 2 2   0.0150000   2.5000000
pair_coeff 2 2   0.0150000   2.5000000
pair_coeff 2 2   0.0150000   2.5000000
pair_coeff 2 3   0.0222486   2.9580399
pair_coeff 3 3   0.0330000   3.5000000
pair_coeff 2 2   0.0150000   2.5000000
pair_coeff 2 2   0.0150000   2.5000000
pair_coeff 2 3   0.0222486   2.9580399
pair_coeff 2 3   0.0222486   2.9580399
pair_coeff 3 3   0.0330000   3.5000000
pair_coeff 2 3   0.0222486   2.9580399
pair_coeff 2 3   0.0222486   2.9580399
pair_coeff 2 3   0.0222486   2.9580399
pair_coeff 2 3   0.0222486   2.9580399
pair_coeff 2 2   0.0150000   2.5000000
pair_coeff 2 2   0.0150000   2.5000000
pair_coeff 2 3   0.0222486   2.9580399
pair_coeff 2 3   0.0222486   2.9580399
pair_coeff 2 2   0.0150000   2.5000000
pair_coeff 2 2   0.0150000   2.5000000
pair_coeff 2 2   0.0150000   2.5000000
pair_coeff 2 3   0.0222486   2.9580399
pair_coeff 3 3   0.0330000   3.5000000
pair_coeff 2 3   0.0222486   2.9580399
pair_coeff 2 2   0.0150000   2.5000000
pair_coeff 2 2   0.0150000   2.5000000
pair_coeff 2 3   0.0222486   2.9580399
pair_coeff 2 2   0.0150000   2.5000000
pair_coeff 2 3   0.0222486   2.9580399
pair_coeff 2 2   0.0150000   2.5000000
pair_coeff 2 3   0.0222486   2.9580399
pair_coeff 2 2   0.0150000   2.5000000
pair_coeff 2 2   0.0150000   2.5000000
pair_coeff 2 3   0.0222486   2.9580399
pair_coeff 2 3   0.0222486   2.9580399
pair_coeff 3 3   0.0330000   3.5000000
pair_coeff 2 2   0.0150000   2.5000000
pair_coeff 2 2   0.0150000   2.5000000
pair_coeff 2 2   0.0150000   2.5000000
pair_coeff 2 3   0.0222486   2.9580399
pair_coeff 2 3   0.0222486   2.9580399
pair_coeff 2 2   0.0150000   2.5000000
pair_coeff 2 2   0.0150000   2.5000000
pair_coeff 3 3   0.0330000   3.5000000
pair_coeff 2 3   0.0222486   2.9580399
pair_coeff 2 3   0.0222486   2.9580399
pair_coeff 2 3   0.0222486   2.9580399
pair_coeff 2 2   0.0150000   2.5000000
pair_coeff 2 2   0.0150000   2.5000000
pair_coeff 2 3   0.0222486   2.9580399
pair_coeff 2 2   0.0150000   2.5000000
pair_coeff 2 2   0.0150000   2.5000000
pair_coeff 3 3   0.0330000   3.5000000
pair_coeff 2 3   0.0222486   2.9580399
pair_coeff 2 3   0.0222486   2.9580399
pair_coeff 2 3   0.0222486   2.9580399
pair_coeff 2 2   0.0150000   2.5000000
pair_coeff 2 2   0.0150000   2.5000000
pair_coeff 2 3   0.0222486   2.9580399
pair_coeff 2 2   0.0150000   2.5000000
pair_coeff 2 2   0.0150000   2.5000000
pair_coeff 3 3   0.0330000   3.5000000
pair_coeff 2 3   0.0222486   2.9580399
pair_coeff 2 3   0.0222486   2.9580399
pair_coeff 2 3   0.0222486   2.9580399
pair_coeff 2 2   0.0150000   2.5000000
pair_coeff 2 2   0.0150000   2.5000000
pair_coeff 2 3   0.0222486   2.9580399
pair_coeff 2 2   0.0150000   2.5000000
pair_coeff 2 2   0.0150000   2.5000000
pair_coeff 3 3   0.0330000   3.5000000
pair_coeff 2 2   0.0150000   2.5000000
pair_coeff 2 2   0.0150000   2.5000000
pair_coeff 3 3   0.0330000   3.5000000
pair_coeff 2 3   0.0222486   2.9580399
pair_coeff 2 3   0.0222486   2.9580399
pair_coeff 2 3   0.0222486   2.9580399
pair_coeff 2 2   0.0150000   2.5000000
pair_coeff 2 2   0.0150000   2.5000000
pair_coeff 2 3   0.0222486   2.9580399
pair_coeff 2 2   0.0150000   2.5000000
pair_coeff 2 2   0.0150000   2.5000000
pair_coeff 3 3   0.0330000   3.5000000
pair_coeff 2 3   0.0222486   2.9580399
pair_coeff 2 3   0.0222486   2.9580399
pair_coeff 2 3   0.0222486   2.9580399
pair_coeff 2 2   0.0150000   2.5000000
pair_coeff 2 2   0.0150000   2.5000000
pair_coeff 2 3   0.0222486   2.9580399
pair_coeff 2 2   0.0150000   2.5000000
pair_coeff 2 2   0.0150000   2.5000000
pair_coeff 3 3   0.0330000   3.5000000
pair_coeff 2 3   0.0222486   2.9580399
pair_coeff 2 3   0.0222486   2.9580399
pair_coeff 2 3   0.0222486   2.9580399
pair_coeff 2 2   0.0150000   2.5000000
pair_coeff 2 2   0.0150000   2.5000000
pair_coeff 2 3   0.0222486   2.9580399
pair_coeff 2 2   0.0150000   2.5000000
pair_coeff 2 2   0.0150000   2.5000000
pair_coeff 3 3   0.0330000   3.5000000
pair_coeff 2 3   0.0222486   2.9580399
pair_coeff 3 3   0.0330000   3.5000000
pair_coeff 2 3   0.0222486   2.9580399
pair_coeff 2 3   0.0222486   2.9580399
pair_coeff 2 3   0.0222486   2.9580399
pair_coeff 2 2   0.0150000   2.5000000
pair_coeff 2 2   0.0150000   2.5000000
pair_coeff 2 3   0.0222486   2.9580399
pair_coeff 2 2   0.0150000   2.5000000
pair_coeff 2 2   0.0150000   2.5000000
pair_coeff 3 3   0.0330000   3.5000000
pair_coeff 2 3   0.0222486   2.9580399
pair_coeff 2 2   0.0150000   2.5000000
pair_coeff 2 3   0.0222486   2.9580399
pair_coeff 2 2   0.0150000   2.5000000
pair_coeff 2 3   0.0222486   2.9580399
pair_coeff 2 2   0.0150000   2.5000000
pair_coeff 2 2   0.0150000   2.5000000
pair_coeff 2 2   0.0150000   2.5000000
pair_coeff 2 3   0.0222486   2.9580399
pair_coeff 2 2   0.0150000   2.5000000
pair_coeff 2 2   0.0150000   2.5000000
pair_coeff 2 2   0.0150000   2.5000000
pair_coeff 2 2   0.0150000   2.5000000
pair_coeff 2 2   0.0150000   2.5000000
pair_coeff 3 3   0.0330000   3.5000000
pair_coeff 2 3   0.0222486   2.9580399
pair_coeff 2 3   0.0222486   2.9580399
pair_coeff 2 3   0.0222486   2.9580399
pair_coeff 2 3   0.0222486   2.9580399
pair_coeff 2 3   0.0222486   2.9580399
pair_coeff 2 3   0.0222486   2.9580399
pair_coeff 1 2   0.0222486   2.9580399
pair_coeff 2 2   0.0150000   2.5000000
pair_coeff 2 2   0.0150000   2.5000000
pair_coeff 2 2   0.0150000   2.5000000
pair_coeff 2 2   0.0150000   2.5000000
pair_coeff 2 3   0.0222486   2.9580399
pair_coeff 1 2   0.0222486   2.9580399
pair_coeff 2 2   0.0150000   2.5000000
pair_coeff 2 2   0.0150000   2.5000000
pair_coeff 2 2   0.0150000   2.5000000
pair_coeff 2 2   0.0150000   2.5000000
pair_coeff 3 3   0.0330000   3.5000000
pair_coeff 1 3   0.0330000   3.5000000
pair_coeff 2 3   0.0222486   2.9580399
pair_coeff 2 3   0.0222486   2.9580399
pair_coeff 2 3   0.0222486   2.9580399
pair_coeff 2 3   0.0222486   2.9580399
pair_coeff 2 3   0.0222486   2.9580399
pair_coeff 2 2   0.0150000   2.5000000
pair_coeff 2 3   0.0222486   2.9580399
pair_coeff 2 3   0.0222486   2.9580399
pair_coeff 2 3   0.0222486   2.9580399
pair_coeff 2 2   0.0150000   2.5000000
pair_coeff 2 2   0.0150000   2.5000000
pair_coeff 2 2   0.0150000   2.5000000
pair_coeff 2 2   0.0150000   2.5000000
pair_coeff 3 3   0.0330000   3.5000000
pair_coeff 2 3   0.0222486   2.9580399
pair_coeff 2 3   0.0222486   2.9580399
pair_coeff 2 2   0.0150000   2.5000000
pair_coeff 2 3   0.0222486   2.9580399
pair_coeff 2 2   0.0150000   2.5000000
pair_coeff 2 3   0.0222486   2.9580399
pair_coeff 3 3   0.0330000   3.5000000
pair_coeff 2 2   0.0150000   2.5000000
pair_coeff 2 3   0.0222486   2.9580399
pair_coeff 2 2   0.0150000   2.5000000
pair_coeff 2 3   0.0222486   2.9580399
pair_coeff 2 3   0.0222486   2.9580399
pair_coeff 2 3   0.0222486   2.9580399
pair_coeff 2 2   0.0150000   2.5000000
pair_coeff 2 2   0.0150000   2.5000000
pair_coeff 2 2   0.0150000   2.5000000
pair_coeff 2 2   0.0150000   2.5000000
pair_coeff 3 3   0.0330000   3.5000000
pair_coeff 2 3   0.0222486   2.9580399
pair_coeff 2 3   0.0222486   2.9580399
pair_coeff 2 2   0.0150000   2.5000000
pair_coeff 2 3   0.0222486   2.9580399
pair_coeff 2 2   0.0150000   2.5000000
pair_coeff 2 3   0.0222486   2.9580399
pair_coeff 3 3   0.0330000   3.5000000
pair_coeff 2 2   0.0150000   2.5000000
pair_coeff 2 3   0.0222486   2.9580399
pair_coeff 2 2   0.0150000   2.5000000
pair_coeff 2 3   0.0222486   2.9580399
pair_coeff 2 3   0.0222486   2.9580399
pair_coeff 2 3   0.0222486   2.9580399
pair_coeff 2 2   0.0150000   2.5000000
pair_coeff 2 2   0.0150000   2.5000000
pair_coeff 2 2   0.0150000   2.5000000
pair_coeff 2 2   0.0150000   2.5000000
pair_coeff 3 3   0.0330000   3.5000000
pair_coeff 2 3   0.0222486   2.9580399
pair_coeff 2 3   0.0222486   2.9580399
pair_coeff 2 2   0.0150000   2.5000000
pair_coeff 2 3   0.0222486   2.9580399
pair_coeff 2 2   0.0150000   2.5000000
pair_coeff 2 3   0.0222486   2.9580399
pair_coeff 3 3   0.0330000   3.5000000
pair_coeff 2 2   0.0150000   2.5000000
pair_coeff 2 3   0.0222486   2.9580399
pair_coeff 2 2   0.0150000   2.5000000
pair_coeff 2 3   0.0222486   2.9580399
pair_coeff 2 3   0.0222486   2.9580399
pair_coeff 2 3   0.0222486   2.9580399
pair_coeff 2 2   0.0150000   2.5000000
pair_coeff 2 2   0.0150000   2.5000000
pair_coeff 2 2   0.0150000   2.5000000
pair_coeff 2 2   0.0150000   2.5000000
pair_coeff 2 3   0.0222486   2.9580399
pair_coeff 2 2   0.0150000   2.5000000
pair_coeff 2 3   0.0222486   2.9580399
pair_coeff 3 3   0.0330000   3.5000000
pair_coeff 2 3   0.0222486   2.9580399
pair_coeff 2 3   0.0222486   2.9580399
pair_coeff 2 2   0.0150000   2.5000000
pair_coeff 2 3   0.0222486   2.9580399
pair_coeff 2 2   0.0150000   2.5000000
pair_coeff 2 3   0.0222486   2.9580399
pair_coeff 2 3   0.0222486   2.9580399
pair_coeff 2 2   0.0150000   2.5000000
pair_coeff 2 2   0.0150000   2.5000000
pair_coeff 2 2   0.0150000   2.5000000
pair_coeff 2 2   0.0150000   2.5000000
pair_coeff 2 3   0.0222486   2.9580399
pair_coeff 3 3   0.0330000   3.5000000
pair_coeff 2 2   0.0150000   2.5000000
pair_coeff 2 3   0.0222486   2.9580399
pair_coeff 2 2   0.0150000   2.5000000
pair_coeff 2 3   0.0222486   2.9580399
pair_coeff 3 3   0.0330000   3.5000000
pair_coeff 2 3   0.0222486   2.9580399
pair_coeff 2 3   0.0222486   2.9580399
pair_coeff 2 2   0.0150000   2.5000000
pair_coeff 2 3   0.0222486   2.9580399
pair_coeff 2 2   0.0150000   2.5000000
pair_coeff 2 3   0.0222486   2.9580399
pair_coeff 2 3   0.0222486   2.9580399
pair_coeff 2 2   0.0150000   2.5000000
pair_coeff 2 2   0.0150000   2.5000000
pair_coeff 2 2   0.0150000   2.5000000
pair_coeff 2 2   0.0150000   2.5000000
pair_coeff 2 3   0.0222486   2.9580399
pair_coeff 3 3   0.0330000   3.5000000
pair_coeff 2 2   0.0150000   2.5000000
pair_coeff 2 3   0.0222486   2.9580399
pair_coeff 2 2   0.0150000   2.5000000
pair_coeff 2 3   0.0222486   2.9580399
pair_coeff 3 3   0.0330000   3.5000000
pair_coeff 2 3   0.0222486   2.9580399
pair_coeff 2 3   0.0222486   2.9580399
pair_coeff 2 2   0.0150000   2.5000000
pair_coeff 2 3   0.0222486   2.9580399
pair_coeff 2 2   0.0150000   2.5000000
pair_coeff 2 3   0.0222486   2.9580399
pair_coeff 2 3   0.0222486   2.9580399
pair_coeff 2 2   0.0150000   2.5000000
pair_coeff 2 2   0.0150000   2.5000000
pair_coeff 2 2   0.0150000   2.5000000
pair_coeff 2 2   0.0150000   2.5000000
pair_coeff 2 3   0.0222486   2.9580399
pair_coeff 3 3   0.0330000   3.5000000
pair_coeff 2 2   0.0150000   2.5000000
pair_coeff 2 3   0.0222486   2.9580399
pair_coeff 2 2   0.0150000   2.5000000
pair_coeff 2 3   0.0222486   2.9580399
pair_coeff 3 3   0.0330000   3.5000000
pair_coeff 2 3   0.0222486   2.9580399
pair_coeff 2 3   0.0222486   2.9580399
pair_coeff 2 2   0.0150000   2.5000000
pair_coeff 2 3   0.0222486   2.9580399
pair_coeff 2 3   0.0222486   2.9580399
pair_coeff 2 2   0.0150000   2.5000000
pair_coeff 2 2   0.0150000   2.5000000
pair_coeff 2 3   0.0222486   2.9580399
pair_coeff 2 2   0.0150000   2.5000000
pair_coeff 2 2   0.0150000   2.5000000
pair_coeff 3 3   0.0330000   3.5000000
pair_coeff 2 3   0.0222486   2.9580399
pair_coeff 2 3   0.0222486   2.9580399
pair_coeff 2 3   0.0222486   2.9580399
pair_coeff 2 2   0.0150000   2.5000000
pair_coeff 2 2   0.0150000   2.5000000
pair_coeff 2 3   0.0222486   2.9580399
pair_coeff 2 2   0.0150000   2.5000000
pair_coeff 2 2   0.0150000   2.5000000
pair_coeff 3 3   0.0330000   3.5000000
pair_coeff 2 3   0.0222486   2.9580399
pair_coeff 2 3   0.0222486   2.9580399
pair_coeff 2 3   0.0222486   2.9580399
pair_coeff 2 2   0.0150000   2.5000000
pair_coeff 2 2   0.0150000   2.5000000
pair_coeff 2 3   0.0222486   2.9580399
pair_coeff 2 2   0.0150000   2.5000000
pair_coeff 2 2   0.0150000   2.5000000
pair_coeff 3 3   0.0330000   3.5000000
pair_coeff 2 3   0.0222486   2.9580399
pair_coeff 2 3   0.0222486   2.9580399
pair_coeff 2 3   0.0222486   2.9580399
pair_coeff 2 2   0.0150000   2.5000000
pair_coeff 2 2   0.0150000   2.5000000
pair_coeff 2 3   0.0222486   2.9580399
pair_coeff 2 3   0.0222486   2.9580399
pair_coeff 2 3   0.0222486   2.9580399
pair_coeff 2 2   0.0150000   2.5000000
pair_coeff 2 2   0.0150000   2.5000000
pair_coeff 2 3   0.0222486   2.9580399
pair_coeff 2 2   0.0150000   2.5000000
pair_coeff 2 2   0.0150000   2.5000000
pair_coeff 3 3   0.0330000   3.5000000
pair_coeff 2 3   0.0222486   2.9580399
pair_coeff 2 3   0.0222486   2.9580399
pair_coeff 2 3   0.0222486   2.9580399
pair_coeff 2 2   0.0150000   2.5000000
pair_coeff 2 2   0.0150000   2.5000000
pair_coeff 2 3   0.0222486   2.9580399
pair_coeff 2 2   0.0150000   2.5000000
pair_coeff 2 2   0.0150000   2.5000000
pair_coeff 3 3   0.0330000   3.5000000
pair_coeff 2 3   0.0222486   2.9580399
pair_coeff 2 3   0.0222486   2.9580399
pair_coeff 2 3   0.0222486   2.9580399
pair_coeff 2 2   0.0150000   2.5000000
pair_coeff 2 2   0.0150000   2.5000000
pair_coeff 2 3   0.0222486   2.9580399
pair_coeff 2 2   0.0150000   2.5000000
pair_coeff 2 2   0.0150000   2.5000000
pair_coeff 3 3   0.0330000   3.5000000
pair_coeff 2 3   0.0222486   2.9580399
pair_coeff 2 3   0.0222486   2.9580399
pair_coeff 2 3   0.0222486   2.9580399
pair_coeff 2 2   0.0150000   2.5000000
pair_coeff 2 2   0.0150000   2.5000000
pair_coeff 2 2   0.0150000   2.5000000
pair_coeff 2 2   0.0150000   2.5000000
pair_coeff 2 3   0.0222486   2.9580399
pair_coeff 2 2   0.0150000   2.5000000
pair_coeff 2 2   0.0150000   2.5000000
pair_coeff 3 3   0.0330000   3.5000000
pair_coeff 2 3   0.0222486   2.9580399
pair_coeff 2 3   0.0222486   2.9580399
pair_coeff 2 3   0.0222486   2.9580399
pair_coeff 2 2   0.0150000   2.5000000
pair_coeff 2 2   0.0150000   2.5000000
pair_coeff 2 3   0.0222486   2.9580399
pair_coeff 2 2   0.0150000   2.5000000
pair_coeff 2 2   0.0150000   2.5000000
pair_coeff 3 3   0.0330000   3.5000000
pair_coeff 2 3   0.0222486   2.9580399
pair_coeff 2 3   0.0222486   2.9580399
pair_coeff 2 3   0.0222486   2.9580399
pair_coeff 2 2   0.0150000   2.5000000
pair_coeff 2 2   0.0150000   2.5000000
pair_coeff 2 3   0.0222486   2.9580399
pair_coeff 2 2   0.0150000   2.5000000
pair_coeff 2 2   0.0150000   2.5000000
pair_coeff 3 3   0.0330000   3.5000000
pair_coeff 2 3   0.0222486   2.9580399
pair_coeff 2 3   0.0222486   2.9580399
pair_coeff 2 3   0.0222486   2.9580399
pair_coeff 2 2   0.0150000   2.5000000
pair_coeff 2 2   0.0150000   2.5000000
pair_coeff 2 3   0.0222486   2.9580399
pair_coeff 2 2   0.0150000   2.5000000
pair_coeff 2 2   0.0150000   2.5000000
pair_coeff 2 3   0.0222486   2.9580399
pair_coeff 3 3   0.0330000   3.5000000
pair_coeff 2 3   0.0222486   2.9580399
pair_coeff 2 3   0.0222486   2.9580399
pair_coeff 2 2   0.0150000   2.5000000
pair_coeff 2 3   0.0222486   2.9580399
pair_coeff 2 2   0.0150000   2.5000000
pair_coeff 2 2   0.0150000   2.5000000
pair_coeff 2 2   0.0150000   2.5000000
pair_coeff 2 3   0.0222486   2.9580399
pair_coeff 2 2   0.0150000   2.5000000
pair_coeff 2 2   0.0150000   2.5000000
pair_coeff 2 3   0.0222486   2.9580399
pair_coeff 2 3   0.0222486   2.9580399
pair_coeff 3 3   0.0330000   3.5000000
pair_coeff 3 3   0.0330000   3.5000000
pair_coeff 2 2   0.0150000   2.5000000
pair_coeff 2 2   0.0150000   2.5000000
pair_coeff 2 3   0.0222486   2.9580399
pair_coeff 2 3   0.0222486   2.9580399
pair_coeff 2 2   0.0150000   2.5000000
pair_coeff 2 2   0.0150000   2.5000000
pair_coeff 2 3   0.0222486   2.9580399
pair_coeff 2 3   0.0222486   2.9580399
pair_coeff 3 3   0.0330000   3.5000000
pair_coeff 2 3   0.0222486   2.9580399
pair_coeff 2 3   0.0222486   2.9580399
pair_coeff 2 3   0.0222486   2.9580399
pair_coeff 2 3   0.0222486   2.9580399
pair_coeff 2 2   0.0150000   2.5000000
pair_coeff 2 2   0.0150000   2.5000000
pair_coeff 2 2   0.0150000   2.5000000
pair_coeff 2 3   0.0222486   2.9580399
pair_coeff 2 2   0.0150000   2.5000000
pair_coeff 2 2   0.0150000   2.5000000
pair_coeff 2 2   0.0150000   2.5000000
pair_coeff 2 3   0.0222486   2.9580399
pair_coeff 3 3   0.0330000   3.5000000
pair_coeff 2 3   0.0222486   2.9580399
pair_coeff 2 3   0.0222486   2.9580399
pair_coeff 2 2   0.0150000   2.5000000
pair_coeff 2 3   0.0222486   2.9580399
pair_coeff 2 2   0.0150000   2.5000000
pair_coeff 2 2   0.0150000   2.5000000
pair_coeff 2 2   0.0150000   2.5000000
pair_coeff 2 3   0.0222486   2.9580399
pair_coeff 2 2   0.0150000   2.5000000
pair_coeff 2 2   0.0150000   2.5000000
pair_coeff 2 3   0.0222486   2.9580399
pair_coeff 2 3   0.0222486   2.9580399
pair_coeff 3 3   0.0330000   3.5000000
pair_coeff 3 3   0.0330000   3.5000000
pair_coeff 2 2   0.0150000   2.5000000
pair_coeff 2 2   0.0150000   2.5000000
pair_coeff 2 3   0.0222486   2.9580399
pair_coeff 2 3   0.0222486   2.9580399
pair_coeff 2 2   0.0150000   2.5000000
pair_coeff 2 2   0.0150000   2.5000000
pair_coeff 2 3   0.0222486   2.9580399
pair_coeff 2 3   0.0222486   2.9580399
pair_coeff 3 3   0.0330000   3.5000000
pair_coeff 2 3   0.0222486   2.9580399
pair_coeff 2 3   0.0222486   2.9580399
pair_coeff 2 3   0.0222486   2.9580399
pair_coeff 2 3   0.0222486   2.9580399
pair_coeff 2 2   0.0150000   2.5000000
pair_coeff 2 2   0.0150000   2.5000000
pair_coeff 2 2   0.0150000   2.5000000
pair_coeff 2 3   0.0222486   2.9580399
pair_coeff 2 2   0.0150000   2.5000000
pair_coeff 2 2   0.0150000   2.5000000
pair_coeff 2 2   0.0150000   2.5000000
pair_coeff 2 3   0.0222486   2.9580399
pair_coeff 3 3   0.0330000   3.5000000
pair_coeff 2 3   0.0222486   2.9580399
pair_coeff 2 3   0.0222486   2.9580399
pair_coeff 2 2   0.0150000   2.5000000
pair_coeff 2 3   0.0222486   2.9580399
pair_coeff 2 2   0.0150000   2.5000000
pair_coeff 2 2   0.0150000   2.5000000
pair_coeff 2 2   0.0150000   2.5000000
pair_coeff 2 3   0.0222486   2.9580399
pair_coeff 2 2   0.0150000   2.5000000
pair_coeff 2 2   0.0150000   2.5000000
pair_coeff 2 3   0.0222486   2.9580399
pair_coeff 2 3   0.0222486   2.9580399
pair_coeff 3 3   0.0330000   3.5000000
pair_coeff 3 3   0.0330000   3.5000000
pair_coeff 2 2   0.0150000   2.5000000
pair_coeff 2 2   0.0150000   2.5000000
pair_coeff 2 3   0.0222486   2.9580399
pair_coeff 2 3   0.0222486   2.9580399
pair_coeff 2 2   0.0150000   2.5000000
pair_coeff 2 2   0.0150000   2.5000000
pair_coeff 2 3   0.0222486   2.9580399
pair_coeff 2 3   0.0222486   2.9580399
pair_coeff 3 3   0.0330000   3.5000000
pair_coeff 2 3   0.0222486   2.9580399
pair_coeff 2 3   0.0222486   2.9580399
pair_coeff 2 3   0.0222486   2.9580399
pair_coeff 2 3   0.0222486   2.9580399
pair_coeff 2 2   0.0150000   2.5000000
pair_coeff 2 2   0.0150000   2.5000000
pair_coeff 2 2   0.0150000   2.5000000
pair_coeff 2 3   0.0222486   2.9580399
pair_coeff 2 2   0.0150000   2.5000000
pair_coeff 2 2   0.0150000   2.5000000
pair_coeff 2 2   0.0150000   2.5000000
pair_coeff 2 3   0.0222486   2.9580399
pair_coeff 3 3   0.0330000   3.5000000
pair_coeff 2 3   0.0222486   2.9580399
pair_coeff 2 3   0.0222486   2.9580399
pair_coeff 2 2   0.0150000   2.5000000
pair_coeff 2 3   0.0222486   2.9580399
pair_coeff 2 2   0.0150000   2.5000000
pair_coeff 2 2   0.0150000   2.5000000
pair_coeff 2 2   0.0150000   2.5000000
pair_coeff 2 3   0.0222486   2.9580399
pair_coeff 2 2   0.0150000   2.5000000
pair_coeff 2 2   0.0150000   2.5000000
pair_coeff 2 3   0.0222486   2.9580399
pair_coeff 2 3   0.0222486   2.9580399
pair_coeff 3 3   0.0330000   3.5000000
pair_coeff 2 2   0.0150000   2.5000000
pair_coeff 2 3   0.0222486   2.9580399
pair_coeff 2 2   0.0150000   2.5000000
pair_coeff 2 2   0.0150000   2.5000000
pair_coeff 3 3   0.0330000   3.5000000
pair_coeff 2 2   0.0150000   2.5000000
pair_coeff 2 3   0.0222486   2.9580399
pair_coeff 3 3   0.0330000   3.5000000
pair_coeff 2 3   0.0222486   2.9580399
pair_coeff 2 3   0.0222486   2.9580399
pair_coeff 2 3   0.0222486   2.9580399
pair_coeff 2 3   0.0222486   2.9580399
pair_coeff 2 2   0.0150000   2.5000000
pair_coeff 2 3   0.0222486   2.9580399
pair_coeff 2 2   0.0150000   2.5000000
pair_coeff 2 2   0.0150000   2.5000000
pair_coeff 2 3   0.0222486   2.9580399
pair_coeff 2 2   0.0150000   2.5000000
pair_coeff 2 2   0.0150000   2.5000000
pair_coeff 2 3   0.0222486   2.9580399
pair_coeff 2 2   0.0150000   2.5000000
pair_coeff 2 2   0.0150000   2.5000000
pair_coeff 3 3   0.0330000   3.5000000
pair_coeff 2 2   0.0150000   2.5000000
pair_coeff 2 3   0.0222486   2.9580399
pair_coeff 3 3   0.0330000   3.5000000
pair_coeff 2 3   0.0222486   2.9580399
pair_coeff 2 3   0.0222486   2.9580399
pair_coeff 2 3   0.0222486   2.9580399
pair_coeff 2 3   0.0222486   2.9580399
pair_coeff 2 2   0.0150000   2.5000000
pair_coeff 2 3   0.0222486   2.9580399
pair_coeff 2 2   0.0150000   2.5000000
pair_coeff 2 2   0.0150000   2.5000000
pair_coeff 2 3   0.0222486   2.9580399
pair_coeff 2 2   0.0150000   2.5000000
pair_coeff 2 2   0.0150000   2.5000000
pair_coeff 2 3   0.0222486   2.9580399
pair_coeff 2 2   0.0150000   2.5000000
pair_coeff 2 2   0.0150000   2.5000000
pair_coeff 3 3   0.0330000   3.5000000
pair_coeff 2 2   0.0150000   2.5000000
pair_coeff 2 3   0.0222486   2.9580399
pair_coeff 3 3   0.0330000   3.5000000
pair_coeff 2 3   0.0222486   2.9580399
pair_coeff 2 3   0.0222486   2.9580399
pair_coeff 2 3   0.0222486   2.9580399
pair_coeff 2 3   0.0222486   2.9580399
pair_coeff 2 2   0.0150000   2.5000000
pair_coeff 2 3   0.0222486   2.9580399
pair_coeff 2 2   0.0150000   2.5000000
pair_coeff 2 2   0.0150000   2.5000000
pair_coeff 2 3   0.0222486   2.9580399
pair_coeff 2 2   0.0150000   2.5000000
pair_coeff 2 2   0.0150000   2.5000000
pair_coeff 2 3   0.0222486   2.9580399
pair_coeff 2 2   0.0150000   2.5000000
pair_coeff 2 2   0.0150000   2.5000000